# Solution for model P0282
# Objective value = 258411
C1001 0
C1002 0
C1003 0
C1004 1
C1005 0
C1006 0
C1007 0
C1008 0
C1009 0
C1010 0
C1011 0
C1012 1
C1013 0
C1014 0
C1015 0
C1016 0
C1017 0
C1018 0
C1019 0
C1020 0
C1021 0
C1022 0
C1023 0
C1024 0
C1025 0
C1026 0
C1027 0
C1028 0
C1029 0
C1030 0
C1031 0
C1032 0
C1033 0
C1034 0
C1035 0
C1036 0
C1037 0
C1038 0
C1039 0
C1040 0
C1041 0
C1042 0
C1043 0
C1044 0
C1045 0
C1046 0
C1047 0
C1048 0
C1049 0
C1050 0
C1051 0
C1052 0
C1053 0
C1054 0
C1055 0
C1056 0
C1057 0
C1058 0
C1059 0
C1060 0
C1061 0
C1062 0
C1063 0
C1064 0
C1065 0
C1066 0
C1067 0
C1068 0
C1069 0
C1070 0
C1071 0
C1072 0
C1073 0
C1074 0
C1075 0
C1076 0
C1077 0
C1078 0
C1079 0
C1080 0
C1081 0
C1082 0
C1083 0
C1084 0
C1085 0
C1086 0
C1087 0
C1088 0
C1089 0
C1090 0
C1091 0
C1092 1
C1093 0
C1094 0
C1095 0
C1096 0
C1097 0
C1098 0
C1099 0
C1100 0
C1101 0
C1102 1
C1103 0
C1104 1
C1105 0
C1106 0
C1107 0
C1108 0
C1109 0
C1110 0
C1111 0
C1112 0
C1113 0
C1114 0
C1115 0
C1116 0
C1117 0
C1118 1
C1119 0
C1120 0
C1121 0
C1122 0
C1123 0
C1124 0
C1125 0
C1126 0
C1127 0
C1128 0
C1129 0
C1130 0
C1131 0
C1132 0
C1133 0
C1134 0
C1135 0
C1136 0
C1137 0
C1138 0
C1139 0
C1140 0
C1141 0
C1142 0
C1143 0
C1144 0
C1145 0
C1146 0
C1147 0
C1148 0
C1149 0
C1150 0
C1151 0
C1152 0
C1153 0
C1154 0
C1155 0
C1156 1
C1157 0
C1158 0
C1159 0
C1160 0
C1161 0
C1162 0
C1163 0
C1164 0
C1165 0
C1166 0
C1167 0
C1168 0
C1169 0
C1170 1
C1171 0
C1172 0
C1173 0
C1174 0
C1175 0
C1176 0
C1177 0
C1178 0
C1179 0
C1180 0
C1181 0
C1182 0
C1183 0
C1184 0
C1185 0
C1186 0
C1187 0
C1188 0
C1189 0
C1190 0
C1191 0
C1192 1
C1193 0
C1194 0
C1195 0
C1196 0
C1197 0
C1198 0
C1199 0
C1200 1
C1201 0
C1202 0
C1203 0
C1204 0
C1205 0
C1206 0
C1207 0
C1208 0
C1209 0
C1210 0
C1211 0
C1212 0
C1213 0
C1214 0
C1215 0
C1216 1
C1217 0
C1218 0
C1219 0
C1220 0
C1221 0
C1222 0
C1223 0
C1224 1
C1225 0
C1226 1
C1227 0
C1228 0
C1229 0
C1230 0
C1231 0
C1232 0
C1233 0
C1235 0
C1237 0
C1239 0
C1241 0
C1243 1
C1245 0
C1247 0
C1248 1
C1249 0
C1250 1
C1251 1
C1252 1
C1253 0
C1254 1
C1255 0
C1256 1
C1257 0
C1258 0
C1259 1
C1260 0
C1261 0
C1262 1
C1263 0
C1264 1
C1265 1
C1266 0
C1267 0
C1268 1
C1269 0
C1270 1
C1271 1
C1272 0
C1273 0
C1274 0
C1275 0
C1276 0
C1277 0
C1278 0
C1279 0
C1280 0
C1281 1
C1282 0
C1283 1
C1284 1
C1285 1
C1286 0
C1287 0
C1288 1
C1289 1
